NAME : XML100_3164_03
DIMENSION : 101
NB_CLUSTERS : 28
CLUSTERING_ALG : DBSCAN
CLUSTERING_PARAMS : eps(49), minSamples(3)
CLUSTERS
1 0
2 10 41 48 55 85 98
3 15 66 75 84 96
4 6 16 60 73
5 1 19 37 45 56 62
6 7 20 33 54 61 72 77
7 11 17 42 70 83
8 13 18 47 95
9 63 81 86 92
10 22 64 80 91 93
11 4 12 28 35 90 99
12 51 52 68
13 49 100
14 50 65 69
15 29 36 39
16 40 44 89
17 25 87
18 31 79
19 58 71
20 9 59
21 5 53 76
22 3 24 30 34 46 88
23 38 67
24 2 14 21 23
25 8 78
26 26 82 97
27 27 94
28 32 43 57 74
EOF